(declare-const a Real)
(declare-const b Real)
(declare-const c Real)
(assert (= (* a b c) 1))
(assert (> a 0))
(assert (> b 0))
(assert (> c 0))
(assert (not (<= (+ (* -14034710 (pow b 4)) (* -10741526 (pow a 4)) (* -28311552 (pow a (pow 3 -1)) (pow b (/ 11 3))) (* -14155776 (pow a (/ 10 3)) (pow b (/ 2 3))) (* 624348 (pow a 2) (pow b 2)) (* 295664070947055866269696 (pow a 3) (pow b 3) (pow (+ (* 15860648 b) (* 50758568 a)) -2))) 0)))
(check-sat)
(get-model)
(exit)